p cnf 36 28
d 0.875 0.125
d 0.875 0.125
d 0.875 0.125
d 0.875 0.125
d 0.875 0.125
d 0.875 0.125
d 0.875 0.125
d 0.875 0.125
d 0.875 0.125
d 0.875 0.125
d 0.875 0.125
d 0.875 0.125
d 0.875 0.125
29
-27
29 -33 -0
33 -29 -0
26 -34 -2
34 -26 -2
31 -30 -4
30 -31 -4
30 -27 -6
27 -30 -6
28 -32 -8
32 -28 -8
30 -35 -10
35 -30 -10
34 -31 -12
31 -34 -12
31 -28 -14
28 -31 -14
28 -32 -16
32 -28 -16
35 -34 -18
34 -35 -18
26 -35 -20
35 -26 -20
35 -32 -22
32 -35 -22
29 -33 -24
33 -29 -24